(set-logic QF_BV)
(declare-fun _substvar_95_ () (_ BitVec 95))
(declare-fun _substvar_217_ () (_ BitVec 95))
(declare-fun _substvar_213_ () (_ BitVec 95))
(declare-fun _substvar_94_ () (_ BitVec 95))
(declare-fun _substvar_366_ () Bool)
(declare-fun _substvar_363_ () Bool)
(declare-fun _substvar_400_ () Bool)
(declare-fun _substvar_151_ () (_ BitVec 95))
(declare-fun _substvar_182_ () (_ BitVec 95))
(assert (and true true true true true true true true true true true true true true true true true true true true true true true true true true true true true (ite _substvar_366_ (= _substvar_151_ (_ bv0 95)) true) (ite _substvar_363_ (= _substvar_213_ (_ bv0 95)) (= _substvar_213_ (concat ((_ extract 93 0) _substvar_151_) (bvxor ((_ extract 94 94) _substvar_151_) ((_ extract 83 83) _substvar_151_))))) (ite _substvar_400_ (= _substvar_95_ (_ bv0 95)) (= _substvar_95_ (concat ((_ extract 93 0) _substvar_213_) (_ bv0 1)))) true true true true true true true true true true true true true true true true true true true true true true true true true true true true true (ite _substvar_366_ true (= _substvar_182_ (_ bv0 95))) (ite _substvar_363_ true (= _substvar_217_ (concat ((_ extract 93 0) _substvar_182_) (_ bv0 1)))) (= _substvar_94_ (concat ((_ extract 93 0) _substvar_217_) (_ bv0 1))) true true true true true true true true true true true true true true true true true true true true true true true true true true true true true true true true true true true true true true true true true true true true true true true true true true true true true true true true true true true true true true true true true true true true true true true true true true (= (or false (= _substvar_95_ (_ bv0 95)) false (= _substvar_94_ (_ bv0 95)) false false) false)))
(check-sat)
(exit)
